NAME : 10_3_3_1_(28).dat
COMMENT : Henke, Speranza, Wäscher, 2015
TYPE : MCVRP
DIMENSION : 11
EDGE_WEIGHT_TYPE : DISTANCE_MATRIX
CAPACITY : 1000
VEHICLES : 3
PRODUCT TYPES : 3
COMPARTMENTS : 3
NODE_COORD_SECTION
1 50 50
2 33.23 52.42
3 1.17 24.44
4 4.37 42.91
5 9.23 13.02
6 49.72 39.42
7 85.81 14.91
8 91.57 48.59
9 71.44 86.43
10 65.12 88.46
11 17.3 28.24
DEMAND_SECTION
1 0 0 0
2 0 151 0
3 0 0 74
4 0 191 0
5 223 0 0
6 249 0 0
7 0 0 254
8 203 0 0
9 116 0 0
10 31 0 0
11 0 151 0
DEPOT_SECTION
1
EOF